80 
300 
19.1 24.3 0 0
18.2 24 0 -113
12.6 24.9 20 -13
14.4 28 20 -11
16.9 28.1 20 -16
20.7 28.2 20 -29
12.5 26.6 -20 -66
21.8 27.3 20 -26
12.5 22.6 -20 -88
22.5 17 30 -13
19.9 15 30 -11
14.9 15.1 30 -19
11.5 18.6 -30 -98
12.4 29.8 -30 -106
17.8 28.1 -30 -65
9.1 29.8 40 -21
10 32.6 40 -15
13.9 33.1 40 -13
19.95 10.3 -40 -134
15.2 8 -40 -135
14.7 31.2 50 -24
7.4 36.5 -50 -73
21 25.5 50 -13
18 25.3 10 -17
19.5 24.7 -10 -134
21.4 21.8 -10 -127
16 21.4 -10 -110
18.65 26.2 10 -20
17.9 28.9 10 -27
14.3 19.9 -20 -67
17 19 20 -15
10.8 21 20 -20
15.7 23.7 -10 -96
